306 5
10 10 10 10 10 

0 0 0 0 0 0 5 2 14 26 38 50 
0 0 0 0 0 0 2 3 4 
9 0 1 0 0 0 3 12 11 6 
2 0 4 0 0 0 3 9 5 47 
3 0 3 0 0 0 3 10 8 7 
5 0 2 0 0 0 3 9 8 7 
10 0 3 0 0 0 1 13 
1 0 2 0 0 0 1 13 
2 0 2 0 0 0 1 13 
7 0 3 0 0 0 1 13 
4 0 3 0 0 0 1 13 
10 0 2 0 0 0 1 13 
0 0 0 0 0 0 1 62 
0 0 0 0 0 0 6 15 16 22 23 24 42 
4 1 0 0 0 0 4 21 20 19 17 
8 2 0 0 0 0 2 19 18 
4 2 0 0 0 0 1 18 
1 2 0 0 0 0 1 25 
7 2 0 0 0 0 1 25 
8 4 0 0 0 0 1 25 
3 1 0 0 0 0 1 25 
3 3 0 0 0 0 1 25 
9 3 0 0 0 0 1 25 
5 5 0 0 0 0 1 25 
0 0 0 0 0 0 1 62 
0 0 0 0 0 0 7 27 28 30 31 32 33 36 
9 0 0 0 0 1 2 35 29 
10 0 0 0 0 2 2 35 29 
5 0 0 0 0 2 1 34 
5 0 0 0 0 5 1 34 
10 0 0 0 0 1 1 34 
8 0 0 0 0 5 1 34 
1 0 0 0 0 3 2 34 167 
3 0 0 0 0 3 1 37 
2 0 0 0 0 1 1 37 
7 0 0 0 0 2 1 37 
0 0 0 0 0 0 1 62 
0 0 0 0 0 0 6 39 40 41 42 43 46 
10 0 0 1 0 0 2 48 44 
3 0 0 4 0 0 2 45 44 
5 0 0 4 0 0 2 48 47 
9 0 0 1 0 0 2 45 215 
10 0 0 1 0 0 1 44 
3 0 0 2 0 0 1 47 
8 0 0 3 0 0 1 47 
6 0 0 4 0 0 1 47 
1 0 0 2 0 0 1 49 
8 0 0 3 0 0 1 49 
0 0 0 0 0 0 1 62 
0 0 0 0 0 0 5 51 53 54 55 60 
1 0 0 0 1 0 2 52 275 
4 0 0 0 3 0 1 56 
3 0 0 0 2 0 1 59 
1 0 0 0 3 0 1 58 
4 0 0 0 4 0 1 57 
6 0 0 0 5 0 1 61 
5 0 0 0 2 0 1 61 
4 0 0 0 2 0 1 61 
10 0 0 0 2 0 1 61 
7 0 0 0 1 0 1 61 
0 0 0 0 0 0 1 62 
0 0 0 0 0 0 5 63 75 87 99 111 
0 0 0 0 0 0 5 64 65 67 72 73 
8 0 1 0 0 0 3 71 70 69 
8 0 2 0 0 0 2 69 66 
3 0 4 0 0 0 2 68 236 
6 0 3 0 0 0 1 68 
4 0 1 0 0 0 1 74 
2 0 3 0 0 0 1 74 
3 0 2 0 0 0 1 74 
8 0 2 0 0 0 1 74 
3 0 5 0 0 0 1 74 
10 0 2 0 0 0 1 74 
0 0 0 0 0 0 1 123 
0 0 0 0 0 0 7 76 78 79 80 81 84 85 
1 0 1 0 0 0 2 83 77 
8 0 3 0 0 0 1 82 
3 0 2 0 0 0 1 83 
4 0 1 0 0 0 1 82 
2 0 2 0 0 0 1 82 
5 0 3 0 0 0 1 82 
7 0 2 0 0 0 1 86 
4 0 5 0 0 0 1 86 
7 0 3 0 0 0 1 86 
8 0 3 0 0 0 1 86 
0 0 0 0 0 0 1 123 
0 0 0 0 0 0 5 88 89 90 91 92 
8 0 0 1 0 0 3 96 94 93 
8 0 0 3 0 0 3 97 96 95 
10 0 0 4 0 0 2 96 93 
7 0 0 4 0 0 2 96 95 
7 0 0 2 0 0 1 93 
10 0 0 3 0 0 1 95 
6 0 0 2 0 0 1 95 
2 0 0 2 0 0 1 98 
5 0 0 2 0 0 1 98 
10 0 0 2 0 0 1 98 
0 0 0 0 0 0 1 123 
0 0 0 0 0 0 4 100 102 103 109 
2 0 1 0 0 0 2 108 101 
3 0 5 0 0 0 3 106 105 104 
10 0 3 0 0 0 1 107 
8 0 3 0 0 0 1 104 
5 0 2 0 0 0 1 110 
3 0 3 0 0 0 1 110 
6 0 3 0 0 0 1 110 
9 0 1 0 0 0 1 110 
6 0 3 0 0 0 1 110 
2 0 1 0 0 0 1 110 
0 0 0 0 0 0 1 123 
0 0 0 0 0 0 2 112 113 
2 1 0 0 0 0 4 121 119 117 115 
10 2 0 0 0 0 3 121 116 114 
9 2 0 0 0 0 3 120 119 118 
5 1 0 0 0 0 2 120 118 
5 3 0 0 0 0 2 119 118 
9 4 0 0 0 0 1 118 
1 2 0 0 0 0 1 122 
9 5 0 0 0 0 1 122 
7 3 0 0 0 0 1 122 
5 2 0 0 0 0 1 122 
0 0 0 0 0 0 1 123 
0 0 0 0 0 0 5 124 136 148 160 172 
0 0 0 0 0 0 3 125 127 134 
2 0 0 0 1 0 5 133 132 131 128 126 
10 0 0 0 3 0 2 130 129 
6 0 0 0 5 0 1 128 
7 0 0 0 2 0 1 135 
9 0 0 0 3 0 1 135 
6 0 0 0 5 0 1 135 
2 0 0 0 1 0 1 135 
6 0 0 0 2 0 1 135 
8 0 0 0 1 0 1 135 
5 0 0 0 2 0 1 135 
0 0 0 0 0 0 1 184 
0 0 0 0 0 0 4 137 138 139 141 
7 0 1 0 0 0 3 145 144 140 
5 0 3 0 0 0 3 146 145 142 
7 0 4 0 0 0 3 144 143 142 
7 0 1 0 0 0 2 143 142 
8 0 7 0 0 0 1 142 
9 0 1 0 0 0 1 147 
3 0 2 0 0 0 1 147 
6 0 3 0 0 0 1 147 
8 0 1 0 0 0 1 147 
8 0 2 0 0 0 1 147 
0 0 0 0 0 0 1 184 
0 0 0 0 0 0 3 149 150 151 
3 0 0 0 1 0 4 155 154 153 152 
9 0 0 0 2 0 3 156 154 153 
3 0 0 0 3 0 3 155 154 152 
3 0 0 0 2 0 2 158 157 
10 0 0 0 4 0 2 158 157 
3 0 0 0 1 0 1 157 
1 0 0 0 1 0 1 158 
3 0 0 0 5 0 1 157 
1 0 0 0 3 0 1 159 
3 0 0 0 3 0 1 159 
0 0 0 0 0 0 1 184 
0 0 0 0 0 0 4 161 162 163 167 
5 1 0 0 0 0 3 166 165 164 
4 2 0 0 0 0 3 168 165 164 
7 1 0 0 0 0 3 169 168 164 
10 4 0 0 0 0 1 170 
10 5 0 0 0 0 1 169 
3 3 0 0 0 0 1 168 
2 1 0 0 0 0 1 168 
7 5 0 0 0 0 1 171 
10 1 0 0 0 0 1 171 
10 2 0 0 0 0 1 171 
0 0 0 0 0 0 1 184 
0 0 0 0 0 0 5 173 174 175 176 177 
4 0 0 1 0 0 2 179 178 
5 0 0 1 0 0 2 179 178 
4 0 0 3 0 0 2 179 178 
9 0 0 4 0 0 2 179 178 
1 0 0 3 0 0 2 179 178 
2 0 0 5 0 0 3 182 181 180 
8 0 0 1 0 0 3 182 181 180 
7 0 0 2 0 0 1 183 
10 0 0 2 0 0 1 183 
6 0 0 3 0 0 1 183 
0 0 0 0 0 0 1 184 
0 0 0 0 0 0 5 185 197 209 221 233 
0 0 0 0 0 0 3 186 187 189 
3 0 0 1 0 0 3 195 190 188 
8 0 0 2 0 0 3 194 192 191 
7 0 0 5 0 0 2 192 191 
10 0 0 2 0 0 2 193 191 
3 0 0 2 0 0 1 191 
5 0 0 4 0 0 1 196 
7 0 0 3 0 0 1 196 
3 0 0 1 0 0 1 196 
7 0 0 3 0 0 1 196 
4 0 0 2 0 0 1 196 
0 0 0 0 0 0 1 245 
0 0 0 0 0 0 2 198 199 
5 1 0 0 0 0 2 205 200 
2 1 0 0 0 0 2 206 201 
2 2 0 0 0 0 5 207 206 204 203 202 
3 3 0 0 0 0 4 205 204 203 202 
5 1 0 0 0 0 1 208 
7 3 0 0 0 0 1 208 
6 4 0 0 0 0 1 208 
3 7 0 0 0 0 1 208 
9 2 0 0 0 0 1 208 
4 1 0 0 0 0 1 208 
0 0 0 0 0 0 1 245 
0 0 0 0 0 0 3 210 211 212 
6 0 0 0 1 0 4 219 218 214 213 
1 0 0 0 4 0 4 219 218 214 213 
9 0 0 0 2 0 2 214 213 
10 0 0 0 3 0 3 217 216 215 
6 0 0 0 4 0 1 215 
10 0 0 0 2 0 1 220 
8 0 0 0 3 0 1 220 
5 0 0 0 2 0 1 220 
3 0 0 0 3 0 1 220 
7 0 0 0 1 0 1 220 
0 0 0 0 0 0 1 245 
0 0 0 0 0 0 4 222 223 224 226 
3 0 0 0 0 1 4 231 230 228 225 
5 0 0 0 0 1 3 230 229 225 
6 0 0 0 0 3 2 229 227 
9 0 0 0 0 3 1 227 
5 0 0 0 0 3 1 228 
1 0 0 0 0 3 1 232 
5 0 0 0 0 3 1 232 
5 0 0 0 0 2 1 232 
9 0 0 0 0 3 1 232 
3 0 0 0 0 3 1 232 
0 0 0 0 0 0 1 245 
0 0 0 0 0 0 4 234 235 237 238 
2 1 0 0 0 0 2 239 236 
2 3 0 0 0 0 3 243 242 240 
3 3 0 0 0 0 3 243 242 241 
10 1 0 0 0 0 2 242 239 
10 1 0 0 0 0 1 239 
4 4 0 0 0 0 1 241 
3 2 0 0 0 0 1 241 
9 4 0 0 0 0 1 244 
2 3 0 0 0 0 1 244 
9 3 0 0 0 0 1 244 
0 0 0 0 0 0 1 245 
0 0 0 0 0 0 5 246 258 270 282 294 
0 0 0 0 0 0 5 247 249 250 255 256 
1 0 0 1 0 0 1 248 
3 0 0 6 0 0 3 253 252 251 
3 0 0 1 0 0 1 254 
5 0 0 3 0 0 1 251 
10 0 0 1 0 0 1 257 
2 0 0 2 0 0 1 257 
8 0 0 3 0 0 1 257 
2 0 0 2 0 0 1 257 
1 0 0 4 0 0 1 257 
5 0 0 2 0 0 1 257 
0 0 0 0 0 0 1 306 
0 0 0 0 0 0 6 259 260 261 262 263 264 
7 1 0 0 0 0 3 267 266 265 
9 2 0 0 0 0 3 267 266 265 
2 2 0 0 0 0 2 267 265 
9 3 0 0 0 0 2 267 265 
7 4 0 0 0 0 2 266 265 
7 3 0 0 0 0 1 266 
1 2 0 0 0 0 1 268 
3 2 0 0 0 0 1 268 
2 3 0 0 0 0 1 268 
8 3 0 0 0 0 1 269 
0 0 0 0 0 0 1 306 
0 0 0 0 0 0 6 271 272 273 274 276 280 
3 0 0 1 0 0 2 279 277 
9 0 0 1 0 0 2 278 277 
1 0 0 2 0 0 1 275 
9 0 0 4 0 0 1 275 
8 0 0 4 0 0 1 277 
8 0 0 1 0 0 1 277 
9 0 0 3 0 0 1 281 
4 0 0 3 0 0 1 281 
2 0 0 2 0 0 1 281 
5 0 0 4 0 0 1 281 
0 0 0 0 0 0 1 306 
0 0 0 0 0 0 4 283 284 285 287 
2 0 1 0 0 0 4 290 289 288 286 
8 0 4 0 0 0 3 292 290 288 
6 0 2 0 0 0 2 289 288 
1 0 2 0 0 0 1 291 
2 0 3 0 0 0 1 288 
5 0 3 0 0 0 1 293 
10 0 1 0 0 0 1 293 
8 0 4 0 0 0 1 293 
6 0 3 0 0 0 1 293 
3 0 2 0 0 0 1 293 
0 0 0 0 0 0 1 306 
0 0 0 0 0 0 5 295 296 298 299 304 
2 0 0 0 0 1 2 301 297 
6 0 0 0 0 1 2 303 300 
10 0 0 0 0 5 1 300 
3 0 0 0 0 5 1 302 
6 0 0 0 0 1 1 301 
2 0 0 0 0 2 1 305 
4 0 0 0 0 2 1 305 
6 0 0 0 0 2 1 305 
9 0 0 0 0 3 1 305 
2 0 0 0 0 3 1 305 
0 0 0 0 0 0 1 306 
0 0 0 0 0 0 0 
